U_100_4.txt

VEHICLE     CAPACITY  LOCATIONS  CUSTOMER  OPTIONS  PRIORITIES  NUMTYPS
10		150		121		100		200		3		4

CUSTOMER  DEMAND
0	 13
1	 11
2	 10
3	 15
4	 19
5	 12
6	 10
7	 11
8	 19
9	 14
10	 15
11	 17
12	 10
13	 16
14	 10
15	 11
16	 19
17	 15
18	 11
19	 20
20	 20
21	 18
22	 12
23	 10
24	 18
25	 16
26	 13
27	 20
28	 12
29	 17
30	 10
31	 13
32	 19
33	 16
34	 13
35	 15
36	 11
37	 19
38	 16
39	 10
40	 12
41	 17
42	 20
43	 14
44	 17
45	 18
46	 15
47	 10
48	 11
49	 15
50	 14
51	 16
52	 20
53	 12
54	 18
55	 10
56	 12
57	 15
58	 11
59	 14
60	 11
61	 12
62	 15
63	 19
64	 12
65	 19
66	 18
67	 16
68	 19
69	 13
70	 17
71	 19
72	 14
73	 16
74	 15
75	 14
76	 19
77	 10
78	 12
79	 18
80	 14
81	 18
82	 19
83	 19
84	 16
85	 19
86	 18
87	 10
88	 13
89	 15
90	 17
91	 15
92	 10
93	 13
94	 13
95	 14
96	 13
97	 13
98	 20
99	 13

LOCATION  XCOORD  YCOORD  CAP  READY  DUE  TYP  SERVICETIME
0		23		43		-1		0		720	 0		0
1		42		20		-1		153		273		 2		6
2		38		4		-1		587		707		 2		6
3		12		10		-1		154		274		 2		6
4		33		34		-1		40		160		 2		6
5		27		42		-1		360		720		 2		6
6		23		36		-1		360		720		 2		6
7		24		11		-1		238		358		 2		6
8		27		42		-1		558		678		 2		6
9		22		13		-1		360		720		 2		6
10		11		32		-1		46		166		 2		6
11		46		36		-1		472		592		 2		6
12		26		45		-1		0		360		 2		6
13		39		27		-1		64		304		 2		6
14		19		15		-1		382		502		 2		6
15		37		2		-1		141		261		 2		6
16		42		44		-1		137		257		 2		6
17		44		37		-1		0		360		 2		6
18		30		37		-1		540		660		 2		6
19		20		46		-1		441		561		 2		6
20		21		23		-1		0		360		 2		6
21		34		32		-1		468		588		 2		6
22		10		21		-1		159		279		 2		6
23		42		3		-1		334		574		 2		6
24		1		49		-1		360		720		 2		6
25		49		22		-1		4		244		 2		6
26		5		15		-1		15		135		 2		6
27		30		30		-1		184		304		 2		6
28		20		47		-1		64		304		 2		6
29		7		14		-1		377		497		 2		6
30		17		29		-1		182		422		 2		6
31		2		7		-1		172		292		 2		6
32		8		15		-1		504		624		 2		6
33		9		41		-1		566		686		 2		6
34		48		24		-1		360		720		 2		6
35		9		27		-1		0		360		 2		6
36		6		19		-1		406		646		 2		6
37		15		15		-1		582		702		 2		6
38		44		49		-1		327		567		 2		6
39		42		19		-1		0		360		 2		6
40		50		13		-1		0		360		 2		6
41		18		30		-1		360		720		 2		6
42		21		3		-1		518		638		 2		6
43		1		3		-1		203		323		 2		6
44		43		24		-1		408		528		 2		6
45		18		36		-1		132		252		 2		6
46		33		44		-1		113		233		 2		6
47		47		48		-1		9		129		 2		6
48		38		38		-1		95		335		 2		6
49		48		21		-1		0		360		 2		6
50		17		35		-1		174		414		 2		6
51		9		27		-1		25		145		 2		6
52		37		7		-1		191		311		 2		6
53		26		47		-1		541		661		 2		6
54		17		27		-1		0		360		 2		6
55		14		2		-1		0		360		 2		6
56		9		9		-1		88		208		 2		6
57		46		15		-1		250		490		 2		6
58		49		37		-1		81		201		 2		6
59		35		21		-1		370		610		 2		6
60		23		40		-1		0		360		 2		6
61		18		42		-1		216		336		 2		6
62		28		45		-1		312		552		 2		6
63		19		4		-1		57		297		 2		6
64		45		22		-1		360		720		 2		6
65		29		28		-1		545		665		 2		6
66		36		19		-1		584		704		 2		6
67		41		36		-1		150		390		 2		6
68		2		10		-1		221		461		 2		6
69		44		44		-1		0		360		 2		6
70		7		14		-1		0		360		 2		6
71		38		26		-1		448		568		 2		6
72		32		4		-1		290		530		 2		6
73		4		10		-1		360		720		 2		6
74		49		22		-1		360		720		 2		6
75		37		13		-1		416		656		 2		6
76		24		48		-1		373		613		 2		6
77		14		31		-1		35		155		 2		6
78		29		35		-1		0		360		 2		6
79		3		4		-1		245		485		 2		6
80		20		1		-1		441		561		 2		6
81		10		32		-1		360		720		 2		6
82		50		48		-1		0		360		 2		6
83		2		17		-1		0		360		 2		6
84		46		13		-1		0		360		 2		6
85		37		15		-1		360		720		 2		6
86		42		11		-1		0		360		 2		6
87		47		50		-1		360		720		 2		6
88		18		47		-1		513		633		 2		6
89		49		34		-1		141		261		 2		6
90		37		21		-1		112		232		 2		6
91		18		35		-1		360		720		 2		6
92		37		33		-1		360		720		 2		6
93		47		3		-1		0		360		 2		6
94		11		8		-1		82		202		 2		6
95		18		17		-1		360		720		 2		6
96		43		42		-1		102		222		 2		6
97		49		47		-1		80		320		 2		6
98		3		16		-1		360		720		 2		6
99		26		19		-1		157		397		 2		6
100		43		43		-1		139		259		 2		6
101		10		11		5		0		720		 1		4
102		8		11		5		0		720		 1		4
103		37		31		5		0		720		 1		4
104		12		13		5		33		513		 1		4
105		24		39		5		124		604		 1		4
106		17		23		3		0		720		 1		4
107		45		43		5		131		611		 1		4
108		36		6		5		58		538		 1		4
109		35		41		5		138		618		 1		4
110		24		45		4		0		720		 1		4
111		40		32		4		0		720		 1		4
112		13		36		5		240		720		 1		4
113		6		43		3		0		720		 1		4
114		41		5		5		102		582		 1		4
115		12		39		3		0		720		 1		4
116		38		29		3		0		720		 1		4
117		27		20		3		0		720		 1		4
118		6		5		5		155		635		 1		4
119		36		15		3		0		720		 1		4
120		42		34		5		0		720		 1		4
OPTION  LOCATION  CUSTOMER  PRIO  SERVICETIME   COST
0		118		0		0		2		0
1		112		1		0		2		0
2		117		2		0		2		0
3		111		3		0		2		0
4		120		4		0		2		0
5		110		5		0		2		0
6		117		6		0		2		0
7		113		7		0		2		0
8		118		8		0		2		0
9		112		9		0		2		0
10		104		10		0		2		0
11		101		11		0		2		0
12		118		12		0		2		0
13		114		13		0		2		0
14		105		14		0		2		0
15		116		15		0		2		0
16		116		16		0		2		0
17		101		17		0		2		0
18		113		18		0		2		0
19		106		19		0		2		0
20		1		20		0		5		0
21		2		21		0		5		0
22		3		22		0		5		0
23		4		23		0		5		0
24		5		24		0		5		0
25		6		25		0		5		0
26		7		26		0		5		0
27		8		27		0		5		0
28		9		28		0		5		0
29		10		29		0		5		0
30		11		30		0		5		0
31		12		31		0		5		0
32		13		32		0		5		0
33		14		33		0		5		0
34		15		34		0		5		0
35		16		35		0		5		0
36		17		36		0		5		0
37		18		37		0		5		0
38		19		38		0		5		0
39		20		39		0		5		0
40		21		40		0		5		0
41		104		40		1		2		0
42		22		41		0		5		0
43		102		41		1		2		0
44		23		42		1		5		0
45		116		42		0		2		0
46		24		43		0		5		0
47		115		43		1		2		0
48		25		44		0		5		0
49		111		44		1		2		0
50		26		45		0		5		0
51		120		45		1		2		0
52		27		46		0		5		0
53		112		46		1		2		0
54		28		47		1		5		0
55		110		47		0		2		0
56		29		48		1		5		0
57		120		48		0		2		0
58		30		49		0		5		0
59		117		49		1		2		0
60		31		50		0		5		0
61		104		50		1		2		0
62		32		51		1		5		0
63		105		51		0		2		0
64		33		52		1		5		0
65		114		52		0		2		0
66		34		53		0		5		0
67		111		53		1		2		0
68		35		54		0		5		0
69		101		54		1		2		0
70		36		55		0		5		0
71		104		55		1		2		0
72		37		56		1		5		0
73		102		56		0		2		0
74		38		57		1		5		0
75		103		57		0		2		0
76		39		58		1		5		0
77		111		58		0		2		0
78		40		59		0		5		0
79		119		59		1		2		0
80		41		60		1		5		0
81		112		60		0		2		0
82		108		60		2		2		0
83		42		61		2		5		0
84		102		61		0		2		0
85		101		61		1		2		0
86		43		62		1		5		0
87		110		62		0		2		0
88		119		62		2		2		0
89		44		63		1		5		0
90		119		63		0		2		0
91		111		63		2		2		0
92		45		64		0		5		0
93		110		64		2		2		0
94		103		64		1		2		0
95		46		65		2		5		0
96		120		65		0		2		0
97		101		65		1		2		0
98		47		66		0		5		0
99		120		66		1		2		0
100		111		66		2		2		0
101		48		67		0		5		0
102		103		67		1		2		0
103		120		67		2		2		0
104		49		68		1		5		0
105		119		68		2		2		0
106		120		68		0		2		0
107		50		69		2		5		0
108		105		69		0		2		0
109		120		69		1		2		0
110		51		70		1		5		0
111		118		70		2		2		0
112		117		70		0		2		0
113		52		71		0		5		0
114		119		71		1		2		0
115		113		71		2		2		0
116		53		72		1		5		0
117		109		72		2		2		0
118		112		72		0		2		0
119		54		73		0		5		0
120		104		73		1		2		0
121		116		73		2		2		0
122		55		74		1		5		0
123		101		74		0		2		0
124		106		74		2		2		0
125		56		75		0		5		0
126		118		75		2		2		0
127		119		75		1		2		0
128		57		76		1		5		0
129		104		76		0		2		0
130		105		76		2		2		0
131		58		77		0		5		0
132		116		77		1		2		0
133		111		77		2		2		0
134		59		78		1		5		0
135		103		78		0		2		0
136		119		78		2		2		0
137		60		79		1		5		0
138		109		79		2		2		0
139		115		79		0		2		0
140		61		80		0		5		0
141		62		80		1		5		0
142		105		80		2		2		0
143		63		81		2		5		0
144		64		81		0		5		0
145		119		81		1		2		0
146		65		82		1		5		0
147		66		82		2		5		0
148		116		82		0		2		0
149		67		83		0		5		0
150		68		83		2		5		0
151		102		83		1		2		0
152		69		84		0		5		0
153		70		84		2		5		0
154		112		84		1		2		0
155		71		85		1		5		0
156		72		85		2		5		0
157		111		85		0		2		0
158		73		86		2		5		0
159		74		86		1		5		0
160		114		86		0		2		0
161		75		87		2		5		0
162		76		87		1		5		0
163		118		87		0		2		0
164		77		88		2		5		0
165		78		88		0		5		0
166		115		88		1		2		0
167		79		89		0		5		0
168		80		89		1		5		0
169		108		89		2		2		0
170		81		90		1		5		0
171		82		90		2		5		0
172		114		90		0		2		0
173		83		91		2		5		0
174		84		91		0		5		0
175		109		91		1		2		0
176		85		92		1		5		0
177		86		92		0		5		0
178		101		92		2		2		0
179		87		93		1		5		0
180		88		93		2		5		0
181		102		93		0		2		0
182		89		94		1		5		0
183		90		94		2		5		0
184		106		94		0		2		0
185		91		95		0		5		0
186		92		95		1		5		0
187		118		95		2		2		0
188		93		96		1		5		0
189		94		96		2		5		0
190		104		96		0		2		0
191		95		97		2		5		0
192		96		97		1		5		0
193		104		97		0		2		0
194		97		98		1		5		0
195		98		98		2		5		0
196		102		98		0		2		0
197		99		99		1		5		0
198		100		99		2		5		0
199		110		99		0		2		0
